p cnf 15 21
15 14 8 0
-15 14 -1 0
15 10 -9 0
-15 -4 -2 0
14 -3 -1 0
13 -12 -11 0
-13 -12 8 0
-13 11 -7 0
-13 8 7 0
-13 -6 3 0
-13 -4 -1 0
12 9 1 0
12 5 -1 0
11 -6 -1 0
-10 -9 6 0
-10 -9 4 0
-10 -8 -6 0
-10 -4 -1 0
7 3 2 0
6 4 -1 0
-6 -3 -2 0
